Version identifier: 12.10.0.0 | 2019-11-26 | 843d4de
CPXPARAM_WorkMem                                 16384
CPXPARAM_MIP_Limits_TreeMemory                   24576
Tried aggregator 2 times.
Aggregator did 20 substitutions.
Reduced MIP has 73 rows, 90 columns, and 300 nonzeros.
Reduced MIP has 90 binaries, 0 generals, 0 SOSs, and 0 indicators.
Presolve time = 0,00 sec. (0,28 ticks)
Found incumbent of value 1029,000000 after 0,00 sec. (0,55 ticks)
Probing time = 0,00 sec. (0,08 ticks)
Tried aggregator 1 time.
Detecting symmetries...
MIP Presolve eliminated 27 rows and 0 columns.
MIP Presolve added 54 rows and 0 columns.
Reduced MIP has 100 rows, 90 columns, and 327 nonzeros.
Reduced MIP has 90 binaries, 0 generals, 0 SOSs, and 0 indicators.
Presolve time = 0,00 sec. (0,40 ticks)
Probing time = 0,00 sec. (0,08 ticks)
Clique table members: 190.
MIP emphasis: balance optimality and feasibility.
MIP search method: dynamic search.
Parallel mode: deterministic, using up to 16 threads.
Root relaxation solution time = 0,00 sec. (0,43 ticks)

        Nodes                                         Cuts/
   Node  Left     Objective  IInf  Best Integer    Best Bound    ItCnt     Gap

*     0+    0                         1029,0000        0,0000           100,00%
*     0+    0                          807,0000        0,0000           100,00%
*     0+    0                          655,0000        0,0000           100,00%
      0     0      343,0000    87      655,0000      343,0000       58   47,63%
      0     0      358,2664    87      655,0000      Cuts: 45       99   45,30%
      0     0      374,4866    87      655,0000      Cuts: 29      130   42,83%
      0     0      379,4325    87      655,0000      Cuts: 54      150   42,07%
      0     0      380,7573    87      655,0000      Cuts: 68      164   41,87%
      0     0      381,0572    87      655,0000   ZeroHalf: 4      168   41,82%
      0     0      445,5693    87      655,0000      Cuts: 72      245   31,97%
      0     0      451,6594    87      655,0000      Cuts: 40      267   31,04%
      0     0      452,5532    87      655,0000   ZeroHalf: 9      279   30,91%
      0     0      453,0762    87      655,0000       Cuts: 4      287   30,83%
      0     0      453,8584    87      655,0000   ZeroHalf: 3      301   30,71%
      0     0      454,1962    87      655,0000       Cuts: 6      310   30,66%
      0     0      454,2589    87      655,0000       Cuts: 5      314   30,65%
      0     0      454,4022    87      655,0000   ZeroHalf: 1      322   30,63%
      0     0      454,6116    87      655,0000      Cuts: 14      326   30,59%
*     0+    0                          654,0000      454,6116            30,49%
      0     0        cutoff            654,0000      654,0000      326    0,00%
Elapsed time = 0,07 sec. (28,32 ticks, tree = 0,01 MB, solutions = 4)

Clique cuts applied:  5
Cover cuts applied:  17
Mixed integer rounding cuts applied:  21
Zero-half cuts applied:  11
Gomory fractional cuts applied:  4

Root node processing (before b&c):
  Real time             =    0,07 sec. (28,33 ticks)
Parallel b&c, 16 threads:
  Real time             =    0,00 sec. (0,00 ticks)
  Sync time (average)   =    0,00 sec.
  Wait time (average)   =    0,00 sec.
                          ------------
Total (root+branch&cut) =    0,07 sec. (28,33 ticks)
